data/solutions/recovery/degenerate/moderate/flexible/degenerate_moderate_instance20/46.sol
Elapsed time: 7.61
Upper bound: 154435274.0
Planning weighted value: 2249428913.0
C[0]=154435274.0
C[1]=154395762.0
C[2]=154380451.0
C[3]=153738379.0
y[0]=3
y[1]=0
y[2]=2
y[3]=2
y[4]=0
y[5]=0
y[6]=3
y[7]=3
y[8]=2
y[9]=1
y[10]=0
y[11]=1
y[12]=2
y[13]=3
y[14]=3
y[15]=1
y[16]=0
y[17]=0
y[18]=1
y[19]=1
y[20]=3
y[21]=1
y[22]=0
y[23]=1
y[24]=2
y[25]=0
y[26]=3
y[27]=3
y[28]=2
y[29]=1
y[30]=3
y[31]=2
y[32]=0
y[33]=2
y[34]=2
y[35]=2
